Traveling Salesman Problem/TSP_generados/Aleatorio1620390878_6.tsp
NAME: Aleatorio1620390878_6.tsp
COMMENT: Randomly generated scenario
TYPE: TSP
DIMENSION: 6
EDGE_WEIGHT_TYPE: ATT
NODE_COORD_SECTION
1 28.08 13.1
2 42.63 15.6
3 6.94 0.41
4 1.96 13.26
5 3.08 39.59
6 4.5 40.82
