Traveling Salesman Problem/TSP_generados/Aleatorio1620390878_6.opt.tour
NAME: Aleatorio1620390878_6.opt.tour
COMMENT: Optimal solution for Aleatorio1620390878_6 (127.14919094502741)
TYPE: TOUR
DIMENSION: 6
TOUR_SECTION
1 2 6 5 4 3
-1
EOF
